=obj= -21718.00000000
0	x1	1.0
1	x2	1.0
2	x3	1.0
3	x5	1.0
4	x6	1.0
5	x7	1.0
6	x8	1.0
7	x9	1.0
8	x10	1.0
9	x11	1.0
10	x12	1.0
11	x13	1.0
12	x14	1.0
13	x15	1.0
14	x16	1.0
15	x17	1.0
16	x18	1.0
17	x19	1.0
18	x20	1.0
19	x21	1.0
20	x24	1.0
21	x25	1.0
22	x26	1.0
23	x27	1.0
24	x31	1.0
25	x32	1.0
26	x34	1.0
27	x35	1.0
28	x36	1.0
29	x37	1.0
30	x38	1.0
31	x39	1.0
32	x40	1.0
33	x41	1.0
34	x43	1.0
35	x44	1.0
36	x45	1.0
37	x99	1.0
38	x124	1.0
39	x127	3.0
40	x133	1.0
41	x134	2.0
42	x136	1.0
43	x152	1.0
44	x156	1.0
45	x164	1.0
46	x167	7.0
47	x168	1.0
48	x176	1.0
49	x188	5.0
50	x195	1.0
51	x196	1.0
52	x199	2.0
53	x200	1.0
54	x204	1.0
55	x206	15.0
56	x207	30.0
57	x208	20.0
58	x212	70.0
59	x213	66.0
60	x214	62.0
61	x215	70.0
62	x216	66.0
63	x217	62.0
64	x218	80.0
65	x219	75.0
66	x220	69.0
67	x221	80.0
68	x222	75.0
69	x223	70.0
70	x226	15.0
71	x227	12.0
72	x231	28.0
73	x235	34.0
74	x236	28.0
75	x238	16.0
76	x239	9.0
77	x240	10.0
78	x241	20.0
79	x242	4.0
80	x243	2.0
81	x244	4.0
82	x247	-1.0
83	x248	3.0
84	x254	30.0
85	x255	23.0
86	x256	23.0
87	x258	33.0
88	x259	26.0
89	x260	26.0
90	x261	29.0
91	x262	26.0
92	x263	26.0
93	x264	29.0
94	x265	5.0
95	x266	5.0
96	x267	5.0
97	x268	5.0
98	x269	5.0
99	x270	5.0
100	x273	51.0
101	x274	40.0
102	x275	23.0
103	x276	53.0
104	x280	23.0
105	x281	23.0
106	x283	23.0
107	x284	18.0
108	x285	32.0
109	x286	23.0
110	x287	60.0
111	x288	55.0
112	x289	45.0
113	x291	41.0
114	x292	41.0
115	x293	41.0
116	x351	1.0
117	x365	1.0
118	x373	1.0
119	x380	1.0
120	x385	1.0
121	x391	1.0
122	x397	1.0
123	x403	1.0
124	x405	1.0
125	x415	1.0
126	x424	1.0
127	x430	1.0
128	x436	1.0
129	x442	1.0
130	x448	1.0
131	x454	1.0
132	x462	1.0
133	x467	1.0
134	x471	1.0
135	x474	1.0
136	x477	1.0
137	x481	1.0
138	x482	1.0
139	x561	1.0
140	x563	1.0
141	x591	1.0
142	x613	1.0
143	x697	1.0
144	x698	1.0
145	x734	1.0
146	x735	1.0
147	x794	1.0
148	x795	1.0
149	x825	1.0
150	x826	1.0
151	x1107	1.0
152	x1114	1.0
153	x1121	1.0
154	x1129	1.0
155	x1196	1.0
156	x1205	1.0
157	x1212	1.0
158	x1220	1.0
159	x1232	1.0
160	x1234	1.0
161	x1236	1.0
162	x1238	1.0
163	x1240	1.0
164	x1243	1.0
165	x1301	1.0
166	x1323	1.0
167	x1324	1.0
168	x1326	1.0
169	x1328	1.0
170	x1331	1.0
171	x1335	1.0
172	x1362	1.0
173	x1363	1.0
174	x1364	1.0
175	x1410	1.0
176	x1412	1.0
177	x1413	1.0
178	x1416	1.0
179	x1419	1.0
180	x1422	1.0
181	x1425	1.0
182	x1428	1.0
183	x1431	1.0
184	x1481	1.0
185	x1482	1.0
186	x1527	1.0
187	x1622	1.0
188	x1623	1.0
189	x1627	1.0
190	x1632	1.0
191	x1669	1.0
192	x1670	1.0
193	x1686	1.0
194	x1687	1.0
195	x1735	1.0
196	x1738	1.0
197	x1765	1.0
198	x1766	1.0
199	x1895	1.0
200	x1902	1.0
201	x2154	1.0
202	x2155	1.0
203	x2248	1.0
204	x2250	1.0
205	x2252	1.0
206	x2301	1.0
207	x2349	1.0
208	x2412	1.0
209	x2414	1.0
210	x2416	1.0
211	x2434	1.0
212	x2510	1.0
213	x2511	1.0
214	x2638	1.0
215	x2658	1.0
216	x2721	1.0
217	x2724	1.0
218	x2785	1.0
219	x2816	1.0
220	x2846	1.0
221	x2849	1.0
222	x2873	1.0
223	x2900	1.0
224	x2901	1.0
225	x2924	1.0
226	x2925	1.0
227	x2955	1.0
228	x2957	1.0
229	x2961	1.0
230	x2979	1.0
231	x2981	1.0
232	x3005	1.0
233	x3007	1.0
234	x3026	1.0
235	x3057	1.0
236	x3059	1.0
237	x3078	1.0
238	x3106	1.0
239	x3108	1.0
240	x3109	1.0
241	x3130	1.0
242	x3189	1.0
243	x3190	1.0
244	x3191	1.0
245	x3233	1.0
246	x3234	1.0
247	x3236	1.0
248	x3239	1.0
249	x3242	1.0
250	x3476	1.0
251	x3478	1.0
252	x3956	1.0
253	x3960	1.0
254	x4168	1.0
255	x4275	1.0
256	x4277	1.0
257	x4430	1.0
258	x4433	1.0
259	x4527	1.0
260	x4529	1.0
261	x4531	1.0
262	x4670	1.0
263	x4672	1.0
264	x4675	1.0
265	x4680	1.0
266	x4685	1.0
267	x4690	1.0
268	x4695	1.0
269	x4699	1.0
270	x4703	1.0
271	x4705	1.0
272	x4722	1.0
273	x4790	1.0
274	x4792	1.0
275	x4871	1.0
276	x4915	1.0
277	x5269	1.0
278	x5271	1.0
279	x5279	1.0
280	x5285	1.0
281	x5287	1.0
282	x5295	1.0
283	x5317	1.0
284	x5319	1.0
285	x5325	1.0
286	x5451	1.0
287	x5454	1.0
288	x5718	1.0
289	x5773	1.0
290	x5774	1.0
291	x5824	1.0
292	x5825	1.0
293	x5842	1.0
294	x5926	1.0
295	x5929	1.0
296	x5932	1.0
297	x6054	1.0
298	x6143	1.0
299	x6144	1.0
300	x6163	1.0
301	x6164	1.0
302	x6165	1.0
303	x6218	1.0
304	x6219	1.0
305	x6251	1.0
306	x6276	1.0
307	x6338	1.0
308	x6355	1.0
309	x6357	1.0
310	x6363	1.0
311	x6461	1.0
312	x6462	1.0
313	x6488	1.0
314	x6490	1.0
315	x6492	1.0
316	x6493	1.0
317	x6563	1.0
318	x6565	1.0
319	x6706	1.0
320	x6794	1.0
321	x6796	1.0
322	x6820	1.0
323	x6821	1.0
324	x6822	1.0
325	x6823	1.0
326	x6824	1.0
327	x7382	1.0
328	x7389	1.0
329	x8227	1.0
330	x8232	1.0
331	x8238	1.0
332	x8244	1.0
333	x8246	1.0
334	x8564	1.0
335	x9431	1.0
336	x9434	1.0
337	x9618	1.0
338	x9619	1.0
339	x9664	1.0
340	x9805	1.0
341	x9807	1.0
342	x9921	1.0
343	x9923	1.0
344	x9960	1.0
345	x10074	1.0
346	x10076	1.0
347	x10174	1.0
348	x10213	1.0
349	x10228	28.0
350	x10229	61.0
351	x10230	37.0
352	x10231	51.0
353	x10232	43.0
354	x10233	96.0
355	x10234	92.0
356	x10235	91.0
357	x10236	96.0
358	x10237	92.0
359	x10238	91.0
360	x10239	64.0
361	x10240	49.0
